1000
750 750
1 525 879
2 525 580
3 524 935
4 523 536
5 523 561
6 523 302
7 522 152
8 521 378
9 521 777
10 520 102
11 520 519
12 519 141
13 519 261
14 519 435
15 519 761
16 519 953
17 519 139
18 517 91
19 516 606
20 516 83
21 516 181
22 516 857
23 515 384
24 515 334
25 515 151
26 514 83
27 514 458
28 514 604
29 514 491
30 513 995
31 513 780
32 512 215
33 512 249
34 512 642
35 512 246
36 512 169
37 511 722
38 511 498
39 511 248
40 510 638
41 510 100
42 509 754
43 509 769
44 509 92
45 509 503
46 508 899
47 507 307
48 506 658
49 506 694
50 506 414
51 506 573
52 506 6
53 505 640
54 505 60
55 505 821
56 504 387
57 504 445
58 504 80
59 503 580
60 503 366
61 502 538
62 502 497
63 502 608
64 501 196
65 500 936
66 499 416
67 499 363
68 498 829
69 498 184
70 498 776
71 497 190
72 497 92
73 497 209
74 497 401
75 495 451
76 495 869
77 494 97
78 494 546
79 494 394
80 493 224
81 493 807
82 492 362
83 492 906
84 491 710
85 491 958
86 491 471
87 490 865
88 490 70
89 490 749
90 489 734
91 488 862
92 488 557
93 488 475
94 488 316
95 488 939
96 488 101
97 487 960
98 487 366
99 487 86
100 487 71
101 487 364
102 486 550
103 486 545
104 486 570
105 486 532
106 485 73
107 484 905
108 484 923
109 484 474
110 484 247
111 483 510
112 483 789
113 483 713
114 483 505
115 483 960
116 482 892
117 482 929
118 482 53
119 481 311
120 480 308
121 480 133
122 480 87
123 479 20
124 479 800
125 479 474
126 478 937
127 476 144
128 476 353
129 475 350
130 475 752
131 475 890
132 475 403
133 475 885
134 475 500
135 474 325
136 474 889
137 474 965
138 474 806
139 473 301
140 472 713
141 472 592
142 472 754
143 471 593
144 471 41
145 471 312
146 469 951
147 469 375
148 468 933
149 468 209
150 468 96
151 467 876
152 467 411
153 467 36
154 467 36
155 465 421
156 465 274
157 464 971
158 464 26
159 464 586
160 464 945
161 463 420
162 463 463
163 463 294
164 462 250
165 462 831
166 461 678
167 461 338
168 460 186
169 460 404
170 460 106
171 459 644
172 459 485
173 459 273
174 459 394
175 459 190
176 458 829
177 458 294
178 458 101
179 458 477
180 458 822
181 458 337
182 457 232
183 457 667
184 456 264
185 455 573
186 455 633
187 454 934
188 454 695
189 454 420
190 453 575
191 453 409
192 452 465
193 452 526
194 452 261
195 451 771
196 451 449
197 451 115
198 451 18
199 450 65
200 450 996
201 450 576
202 449 427
203 449 8
204 449 806
205 448 831
206 447 522
207 447 930
208 447 933
209 447 789
210 446 21
211 446 794
212 446 54
213 445 87
214 445 344
215 445 808
216 445 539
217 444 254
218 444 211
219 443 856
220 443 381
221 443 247
222 443 540
223 443 792
224 443 88
225 442 28
226 442 771
227 442 258
228 441 530
229 440 683
230 440 236
231 440 621
232 439 253
233 439 653
234 438 121
235 438 481
236 438 639
237 437 380
238 437 840
239 437 618
240 436 467
241 436 224
242 436 189
243 434 213
244 434 547
245 434 928
246 434 286
247 433 288
248 433 307
249 433 382
250 433 780
251 433 488
252 432 956
253 432 964
254 432 812
255 432 426
256 432 380
257 432 169
258 431 333
259 431 544
260 431 594
261 431 798
262 431 355
263 431 996
264 430 229
265 430 909
266 430 323
267 429 701
268 429 532
269 429 18
270 429 437
271 428 473
272 428 397
273 428 541
274 428 222
275 428 400
276 428 434
277 427 803
278 426 237
279 426 157
280 426 830
281 425 336
282 425 788
283 425 641
284 424 799
285 424 60
286 423 224
287 422 749
288 421 589
289 420 899
290 420 588
291 420 470
292 420 298
293 419 778
294 419 248
295 419 337
296 419 181
297 419 522
298 418 497
299 418 232
300 417 249
301 416 813
302 416 463
303 416 979
304 415 352
305 415 237
306 415 799
307 414 583
308 413 453
309 412 804
310 412 578
311 411 840
312 411 800
313 411 802
314 410 149
315 410 635
316 410 953
317 410 338
318 410 155
319 410 933
320 409 166
321 409 166
322 408 509
323 408 848
324 407 980
325 406 6
326 406 649
327 406 432
328 406 92
329 406 27
330 405 319
331 405 859
332 405 929
333 404 678
334 403 522
335 401 995
336 400 407
337 400 11
338 400 548
339 400 120
340 400 581
341 399 567
342 399 887
343 398 609
344 397 831
345 397 850
346 397 9
347 397 436
348 396 422
349 396 809
350 396 459
351 396 127
352 395 523
353 395 684
354 395 48
355 395 795
356 394 537
357 394 127
358 394 899
359 394 308
360 394 373
361 393 84
362 392 752
363 391 521
364 391 674
365 391 113
366 390 69
367 390 607
368 389 562
369 389 840
370 389 258
371 389 155
372 388 240
373 388 843
374 385 51
375 385 906
376 384 795
377 384 667
378 384 976
379 383 790
380 383 170
381 383 628
382 383 569
383 382 864
384 382 235
385 381 415
386 381 482
387 380 89
388 380 614
389 379 795
390 378 166
391 378 628
392 377 277
393 377 548
394 377 56
395 377 103
396 376 979
397 375 924
398 375 834
399 375 564
400 374 609
401 374 105
402 373 652
403 372 448
404 372 225
405 372 239
406 371 594
407 371 507
408 370 155
409 369 119
410 368 129
411 368 82
412 368 490
413 368 852
414 368 697
415 368 757
416 367 392
417 367 844
418 367 409
419 367 560
420 367 976
421 366 487
422 366 553
423 366 327
424 366 736
425 366 121
426 365 599
427 365 921
428 365 200
429 364 572
430 364 353
431 364 305
432 364 155
433 363 550
434 363 998
435 363 712
436 363 30
437 363 20
438 363 579
439 363 661
440 362 575
441 362 638
442 362 136
443 362 327
444 362 659
445 361 418
446 361 200
447 361 497
448 361 55
449 361 948
450 360 743
451 359 739
452 359 769
453 359 19
454 359 748
455 359 439
456 357 45
457 357 688
458 357 201
459 356 732
460 356 915
461 355 145
462 354 884
463 354 359
464 354 25
465 354 638
466 353 735
467 353 251
468 352 740
469 352 687
470 352 211
471 352 472
472 351 694
473 351 460
474 351 546
475 351 680
476 351 467
477 350 885
478 350 776
479 350 513
480 350 923
481 348 460
482 348 554
483 348 225
484 347 267
485 347 348
486 347 37
487 346 254
488 346 372
489 346 314
490 345 255
491 345 955
492 345 799
493 345 367
494 345 412
495 345 410
496 344 46
497 344 762
498 344 555
499 343 883
500 343 471
501 342 630
502 342 115
503 341 218
504 341 455
505 341 404
506 341 833
507 341 755
508 340 953
509 339 891
510 339 95
511 339 820
512 339 208
513 339 62
514 338 370
515 338 988
516 338 69
517 337 297
518 337 2
519 337 694
520 336 986
521 336 794
522 335 544
523 335 417
524 335 837
525 334 616
526 334 80
527 334 471
528 334 675
529 333 693
530 332 596
531 331 251
532 330 860
533 330 90
534 330 886
535 330 199
536 329 229
537 328 573
538 328 968
539 328 212
540 328 88
541 328 508
542 328 110
543 328 854
544 328 657
545 327 803
546 326 425
547 326 515
548 326 929
549 326 929
550 325 334
551 325 209
552 325 541
553 325 982
554 324 3
555 323 118
556 323 281
557 322 23
558 320 623
559 320 830
560 319 83
561 319 27
562 318 588
563 318 202
564 318 585
565 318 624
566 318 861
567 317 804
568 317 383
569 317 475
570 317 897
571 317 439
572 316 95
573 316 379
574 315 910
575 314 755
576 314 530
577 314 487
578 313 188
579 313 649
580 311 803
581 310 783
582 310 547
583 310 611
584 309 1
585 309 107
586 309 6
587 309 400
588 309 285
589 308 420
590 308 184
591 308 197
592 307 310
593 307 730
594 307 469
595 307 501
596 306 599
597 306 848
598 304 94
599 304 973
600 304 419
601 303 365
602 303 13
603 303 175
604 302 782
605 302 649
606 302 594
607 301 204
608 301 643
609 301 835
610 301 948
611 301 904
612 301 145
613 300 528
614 300 542
615 299 906
616 298 490
617 297 679
618 295 792
619 295 921
620 295 644
621 295 216
622 294 593
623 294 301
624 294 4
625 293 820
626 293 675
627 292 528
628 291 801
629 291 949
630 290 685
631 290 524
632 290 169
633 289 536
634 289 242
635 289 817
636 289 339
637 289 842
638 288 647
639 287 575
640 287 536
641 286 396
642 285 186
643 285 598
644 284 100
645 283 975
646 283 49
647 283 984
648 283 478
649 283 426
650 282 93
651 280 152
652 279 489
653 279 199
654 278 60
655 278 949
656 278 695
657 278 43
658 277 337
659 277 74
660 276 752
661 276 753
662 276 28
663 276 369
664 275 814
665 275 824
666 274 150
667 274 917
668 273 173
669 273 836
670 273 193
671 273 514
672 273 254
673 272 91
674 272 661
675 272 320
676 272 280
677 272 184
678 272 637
679 271 601
680 271 527
681 271 166
682 270 915
683 270 369
684 270 14
685 270 348
686 270 153
687 270 284
688 269 591
689 269 503
690 268 892
691 268 200
692 268 257
693 267 472
694 267 186
695 267 691
696 267 902
697 266 224
698 266 453
699 266 601
700 266 580
701 265 597
702 265 224
703 264 672
704 263 441
705 263 319
706 263 90
707 263 825
708 262 605
709 262 474
710 262 96
711 261 777
712 261 107
713 261 459
714 261 945
715 260 736
716 260 935
717 260 546
718 259 431
719 259 566
720 258 426
721 257 20
722 256 959
723 256 796
724 256 10
725 256 108
726 256 787
727 255 892
728 255 785
729 255 996
730 255 120
731 254 857
732 254 678
733 254 637
734 254 406
735 254 218
736 253 606
737 253 705
738 252 524
739 252 437
740 252 59
741 251 880
742 250 452
743 250 823
744 249 628
745 249 766
746 249 748
747 249 450
748 248 311
749 247 11
750 247 555
751 247 316
752 247 852
753 246 195
754 246 230
755 246 452
756 245 417
757 245 155
758 244 423
759 244 390
760 243 349
761 243 859
762 242 594
763 242 722
764 242 979
765 241 58
766 241 458
767 241 374
768 240 864
769 240 824
770 239 71
771 239 330
772 238 930
773 238 895
774 238 251
775 237 611
776 236 263
777 236 137
778 236 4
779 236 983
780 235 265
781 235 905
782 235 965
783 235 512
784 235 983
785 235 175
786 234 888
787 234 620
788 234 343
789 234 138
790 233 92
791 233 344
792 233 462
793 232 884
794 232 870
795 232 137
796 231 568
797 230 180
798 229 739
799 229 198
800 229 648
801 228 461
802 228 901
803 227 254
804 227 895
805 227 937
806 227 530
807 227 993
808 226 506
809 226 794
810 226 246
811 226 252
812 226 963
813 226 662
814 225 641
815 225 592
816 224 372
817 223 467
818 223 179
819 222 369
820 222 9
821 222 183
822 222 737
823 221 475
824 220 503
825 220 867
826 219 436
827 218 151
828 218 100
829 218 561
830 218 671
831 217 67
832 217 630
833 217 829
834 217 885
835 216 692
836 216 948
837 215 136
838 215 970
839 215 286
840 214 771
841 214 354
842 214 13
843 213 496
844 213 812
845 212 256
846 212 44
847 212 295
848 212 992
849 209 624
850 209 883
851 208 838
852 208 878
853 208 860
854 208 470
855 208 804
856 208 907
857 208 354
858 207 221
859 207 744
860 206 927
861 206 263
862 205 392
863 205 921
864 205 45
865 205 8
866 205 511
867 203 553
868 203 865
869 202 160
870 201 340
871 201 94
872 200 272
873 200 593
874 199 799
875 199 21
876 198 129
877 197 717
878 197 9
879 197 94
880 196 173
881 195 674
882 194 776
883 194 597
884 193 4
885 193 286
886 192 788
887 192 841
888 192 720
889 191 495
890 191 36
891 191 207
892 191 158
893 191 312
894 191 169
895 191 42
896 190 466
897 190 847
898 189 350
899 189 814
900 189 638
901 188 376
902 188 192
903 187 834
904 187 530
905 187 623
906 187 780
907 186 854
908 186 466
909 186 58
910 185 723
911 185 323
912 184 581
913 184 826
914 184 100
915 183 918
916 183 40
917 183 590
918 183 714
919 183 195
920 183 657
921 182 42
922 182 418
923 180 479
924 180 765
925 180 768
926 180 79
927 180 352
928 179 612
929 179 144
930 178 854
931 178 188
932 178 586
933 178 156
934 177 88
935 177 654
936 176 176
937 176 994
938 175 486
939 175 457
940 174 771
941 173 18
942 172 819
943 172 122
944 172 765
945 172 411
946 170 559
947 170 575
948 169 431
949 169 943
950 169 424
951 169 197
952 168 64
953 168 869
954 168 764
955 168 650
956 168 671
957 167 439
958 167 39
959 167 89
960 166 422
961 166 69
962 164 923
963 164 636
964 164 754
965 163 696
966 163 973
967 162 359
968 162 45
969 162 8
970 162 864
971 162 938
972 161 164
973 161 58
974 161 740
975 161 836
976 161 821
977 161 121
978 161 919
979 160 455
980 159 511
981 159 589
982 158 832
983 157 105
984 157 477
985 157 167
986 156 446
987 155 175
988 155 809
989 155 734
990 154 291
991 154 629
992 153 167
993 152 580
994 152 863
995 152 864
996 152 44
997 151 544
998 150 353
999 150 752
1000 150 794
